NAME : in_house_8_8
TYPE : TSP
DIMENSION : 8
EDGE_WEIGHT_TYPE : EXPLICIT
EDGE_WEIGHT_FORMAT : UPPER_ROW
COMMENT : INVERSION_SHIFT=1
EDGE_WEIGHT_SECTION
35
14
49
37
62
29
20
29
45
37
38
55
12
40
20
27
4
13
64
35
52
32
25
25
8
33
12
19
